num_offers = 40;
num_halls = 10;
start=[30,1,39,30,14,65,20,57,18,12,19,57,8,10,43,5,57,65,69,52,63,35,20,14,7,78,13,4,24,54,39,14,3,54,1,31,35,72,47,39];
end=[36,42,84,56,72,85,59,98,38,53,72,68,32,67,73,66,62,84,84,72,71,82,73,78,35,94,45,95,44,55,94,47,56,84,32,51,73,86,62,72];
price=[608,3620,466,2090,2569,662,463,549,2042,694,4114,842,1845,4173,1370,2302,137,746,586,1322,570,2259,1647,3033,562,562,1707,6841,585,73,4080,3080,4946,1070,694,829,1822,1346,414,2980];
requirement=[308,337,994,948,867,379,311,334,313,874,943,238,789,511,491,820,632,279,598,218,450,572,665,726,376,284,787,382,643,208,356,928,953,416,694,375,402,915,734,715];
capacity=[929,523,458,586,897,815,469,280,845,819];
